% Escenario 5:
% - 3 plantas
% - 2 clientes
% - 5 días
% Aumentan demandas y se mantiene G=50%.

np = 3;
nc = 2;
nd = 5;

nombrePlanta = ["Nuclear", "Hidroelectrica", "Termica"];
nombreCliente = ["ClienteX", "ClienteY"];

costo = [45.0, 20.0, 60.0];
cap = [800, 600, 400];
pago = [90.0, 120.0];

dem = array2d(1..nc, 1..nd, [
  100, 100, 80,  200, 250,
  250, 300, 350, 100,  90
]);

G = 0.50;

umbralAlto = [0.9, 0.8, 0.75];
maxDiasAlto = [1, 2, 1];
